10

O       7.523350000000000      8.619299999999999      7.387600000000000
O       7.523149999999999      6.380199999999999      7.611200000000000
O       9.523650000000000      7.499700000000000      7.500100000000000
C       6.188549999999999      8.227399999999999      7.672000000000000
C       6.188249999999999      6.772399999999999      7.327900000000000
C       8.301749999999998      7.499700000000000      7.499400000000000
H       5.476349999999999      8.801399999999999      7.073399999999999
H       5.993149999999999      8.406400000000000      8.734500000000001
H       5.476349999999999      6.198600000000000      7.927099999999999
H       5.991949999999999      6.593500000000000      6.265499999999999
