Na                                      
   1.00000000000000     
    12.8700000000000010    0.0000000000000000    0.0000000000000000
     0.0000000000000000   12.8700000000000010    0.0000000000000000
     0.0000000000000000    0.0000000000000000   39.3049999999999997
  Na            
    90
Direct
     0.0000000000000000    0.0000000000000000    0.2686377550173186
     0.1666666666666643    0.1666666666666643    0.3196855890903308
     0.0000000000000000    0.0000000000000000    0.3707925324949234
     0.1666666666666643    0.1666666666666643    0.4220607041019145
     0.0000000000000000    0.0000000000000000    0.4743826117879703
     0.1666666666666643    0.1666666666666643    0.5256173882120296
     0.0000000000000000    0.0000000000000000    0.5779392958980856
     0.1666666666666643    0.1666666666666643    0.6292074675050765
     0.0000000000000000    0.0000000000000000    0.6803144109096761
     0.1666666666666643    0.1666666666666643    0.7313622449826815
     0.0000000000000000    0.3333333333333357    0.2686377550173186
     0.1666666666666643    0.5000000000000000    0.3196855890903308
     0.0000000000000000    0.3333333333333357    0.3707925324949234
     0.1666666666666643    0.5000000000000000    0.4220607041019145
     0.0000000000000000    0.3333333333333357    0.4743826117879703
     0.1666666666666643    0.5000000000000000    0.5256173882120296
     0.0000000000000000    0.3333333333333357    0.5779392958980856
     0.1666666666666643    0.5000000000000000    0.6292074675050765
     0.0000000000000000    0.3333333333333357    0.6803144109096761
     0.1666666666666643    0.5000000000000000    0.7313622449826815
     0.0000000000000000    0.6666666666666643    0.2686377550173186
     0.1666666666666643    0.8333333333333357    0.3196855890903308
     0.0000000000000000    0.6666666666666643    0.3707925324949234
     0.1666666666666643    0.8333333333333357    0.4220607041019145
     0.0000000000000000    0.6666666666666643    0.4743826117879703
     0.1666666666666643    0.8333333333333357    0.5256173882120296
     0.0000000000000000    0.6666666666666643    0.5779392958980856
     0.1666666666666643    0.8333333333333357    0.6292074675050765
     0.0000000000000000    0.6666666666666643    0.6803144109096761
     0.1666666666666643    0.8333333333333357    0.7313622449826815
     0.3333333333333357    0.0000000000000000    0.2686377550173186
     0.5000000000000000    0.1666666666666643    0.3196855890903308
     0.3333333333333357    0.0000000000000000    0.3707925324949234
     0.5000000000000000    0.1666666666666643    0.4220607041019145
     0.3333333333333357    0.0000000000000000    0.4743826117879703
     0.5000000000000000    0.1666666666666643    0.5256173882120296
     0.3333333333333357    0.0000000000000000    0.5779392958980856
     0.5000000000000000    0.1666666666666643    0.6292074675050765
     0.3333333333333357    0.0000000000000000    0.6803144109096761
     0.5000000000000000    0.1666666666666643    0.7313622449826815
     0.3333333333333357    0.3333333333333357    0.2686377550173186
     0.5000000000000000    0.5000000000000000    0.3196855890903308
     0.3333333333333357    0.3333333333333357    0.3707925324949234
     0.5000000000000000    0.5000000000000000    0.4220607041019145
     0.3333333333333357    0.3333333333333357    0.4743826117879703
     0.5000000000000000    0.5000000000000000    0.5256173882120296
     0.3333333333333357    0.3333333333333357    0.5779392958980856
     0.5000000000000000    0.5000000000000000    0.6292074675050765
     0.3333333333333357    0.3333333333333357    0.6803144109096761
     0.5000000000000000    0.5000000000000000    0.7313622449826815
     0.3333333333333357    0.6666666666666643    0.2686377550173186
     0.5000000000000000    0.8333333333333357    0.3196855890903308
     0.3333333333333357    0.6666666666666643    0.3707925324949234
     0.5000000000000000    0.8333333333333357    0.4220607041019145
     0.3333333333333357    0.6666666666666643    0.4743826117879703
     0.5000000000000000    0.8333333333333357    0.5256173882120296
     0.3333333333333357    0.6666666666666643    0.5779392958980856
     0.5000000000000000    0.8333333333333357    0.6292074675050765
     0.3333333333333357    0.6666666666666643    0.6803144109096761
     0.5000000000000000    0.8333333333333357    0.7313622449826815
     0.6666666666666643    0.0000000000000000    0.2686377550173186
     0.8333333333333357    0.1666666666666643    0.3196855890903308
     0.6666666666666643    0.0000000000000000    0.3707925324949234
     0.8333333333333357    0.1666666666666643    0.4220607041019145
     0.6666666666666643    0.0000000000000000    0.4743826117879703
     0.8333333333333357    0.1666666666666643    0.5256173882120296
     0.6666666666666643    0.0000000000000000    0.5779392958980856
     0.8333333333333357    0.1666666666666643    0.6292074675050765
     0.6666666666666643    0.0000000000000000    0.6803144109096761
     0.8333333333333357    0.1666666666666643    0.7313622449826815
     0.6666666666666643    0.3333333333333357    0.2686377550173186
     0.8333333333333357    0.5000000000000000    0.3196855890903308
     0.6666666666666643    0.3333333333333357    0.3707925324949234
     0.8333333333333357    0.5000000000000000    0.4220607041019145
     0.6666666666666643    0.3333333333333357    0.4743826117879703
     0.8333333333333357    0.5000000000000000    0.5256173882120296
     0.6666666666666643    0.3333333333333357    0.5779392958980856
     0.8333333333333357    0.5000000000000000    0.6292074675050765
     0.6666666666666643    0.3333333333333357    0.6803144109096761
     0.8333333333333357    0.5000000000000000    0.7313622449826815
     0.6666666666666643    0.6666666666666643    0.2686377550173186
     0.8333333333333357    0.8333333333333357    0.3196855890903308
     0.6666666666666643    0.6666666666666643    0.3707925324949234
     0.8333333333333357    0.8333333333333357    0.4220607041019145
     0.6666666666666643    0.6666666666666643    0.4743826117879703
     0.8333333333333357    0.8333333333333357    0.5256173882120296
     0.6666666666666643    0.6666666666666643    0.5779392958980856
     0.8333333333333357    0.8333333333333357    0.6292074675050765
     0.6666666666666643    0.6666666666666643    0.6803144109096761
     0.8333333333333357    0.8333333333333357    0.7313622449826815
 
  0.00000000E+00  0.00000000E+00  0.00000000E+00
  0.00000000E+00  0.00000000E+00  0.00000000E+00
  0.00000000E+00  0.00000000E+00  0.00000000E+00
  0.00000000E+00  0.00000000E+00  0.00000000E+00
  0.00000000E+00  0.00000000E+00  0.00000000E+00
  0.00000000E+00  0.00000000E+00  0.00000000E+00
  0.00000000E+00  0.00000000E+00  0.00000000E+00
  0.00000000E+00  0.00000000E+00  0.00000000E+00
  0.00000000E+00  0.00000000E+00  0.00000000E+00
  0.00000000E+00  0.00000000E+00  0.00000000E+00
  0.00000000E+00  0.00000000E+00  0.00000000E+00
  0.00000000E+00  0.00000000E+00  0.00000000E+00
  0.00000000E+00  0.00000000E+00  0.00000000E+00
  0.00000000E+00  0.00000000E+00  0.00000000E+00
  0.00000000E+00  0.00000000E+00  0.00000000E+00
  0.00000000E+00  0.00000000E+00  0.00000000E+00
  0.00000000E+00  0.00000000E+00  0.00000000E+00
  0.00000000E+00  0.00000000E+00  0.00000000E+00
  0.00000000E+00  0.00000000E+00  0.00000000E+00
  0.00000000E+00  0.00000000E+00  0.00000000E+00
  0.00000000E+00  0.00000000E+00  0.00000000E+00
  0.00000000E+00  0.00000000E+00  0.00000000E+00
  0.00000000E+00  0.00000000E+00  0.00000000E+00
  0.00000000E+00  0.00000000E+00  0.00000000E+00
  0.00000000E+00  0.00000000E+00  0.00000000E+00
  0.00000000E+00  0.00000000E+00  0.00000000E+00
  0.00000000E+00  0.00000000E+00  0.00000000E+00
  0.00000000E+00  0.00000000E+00  0.00000000E+00
  0.00000000E+00  0.00000000E+00  0.00000000E+00
  0.00000000E+00  0.00000000E+00  0.00000000E+00
  0.00000000E+00  0.00000000E+00  0.00000000E+00
  0.00000000E+00  0.00000000E+00  0.00000000E+00
  0.00000000E+00  0.00000000E+00  0.00000000E+00
  0.00000000E+00  0.00000000E+00  0.00000000E+00
  0.00000000E+00  0.00000000E+00  0.00000000E+00
  0.00000000E+00  0.00000000E+00  0.00000000E+00
  0.00000000E+00  0.00000000E+00  0.00000000E+00
  0.00000000E+00  0.00000000E+00  0.00000000E+00
  0.00000000E+00  0.00000000E+00  0.00000000E+00
  0.00000000E+00  0.00000000E+00  0.00000000E+00
  0.00000000E+00  0.00000000E+00  0.00000000E+00
  0.00000000E+00  0.00000000E+00  0.00000000E+00
  0.00000000E+00  0.00000000E+00  0.00000000E+00
  0.00000000E+00  0.00000000E+00  0.00000000E+00
  0.00000000E+00  0.00000000E+00  0.00000000E+00
  0.00000000E+00  0.00000000E+00  0.00000000E+00
  0.00000000E+00  0.00000000E+00  0.00000000E+00
  0.00000000E+00  0.00000000E+00  0.00000000E+00
  0.00000000E+00  0.00000000E+00  0.00000000E+00
  0.00000000E+00  0.00000000E+00  0.00000000E+00
  0.00000000E+00  0.00000000E+00  0.00000000E+00
  0.00000000E+00  0.00000000E+00  0.00000000E+00
  0.00000000E+00  0.00000000E+00  0.00000000E+00
  0.00000000E+00  0.00000000E+00  0.00000000E+00
  0.00000000E+00  0.00000000E+00  0.00000000E+00
  0.00000000E+00  0.00000000E+00  0.00000000E+00
  0.00000000E+00  0.00000000E+00  0.00000000E+00
  0.00000000E+00  0.00000000E+00  0.00000000E+00
  0.00000000E+00  0.00000000E+00  0.00000000E+00
  0.00000000E+00  0.00000000E+00  0.00000000E+00
  0.00000000E+00  0.00000000E+00  0.00000000E+00
  0.00000000E+00  0.00000000E+00  0.00000000E+00
  0.00000000E+00  0.00000000E+00  0.00000000E+00
  0.00000000E+00  0.00000000E+00  0.00000000E+00
  0.00000000E+00  0.00000000E+00  0.00000000E+00
  0.00000000E+00  0.00000000E+00  0.00000000E+00
  0.00000000E+00  0.00000000E+00  0.00000000E+00
  0.00000000E+00  0.00000000E+00  0.00000000E+00
  0.00000000E+00  0.00000000E+00  0.00000000E+00
  0.00000000E+00  0.00000000E+00  0.00000000E+00
  0.00000000E+00  0.00000000E+00  0.00000000E+00
  0.00000000E+00  0.00000000E+00  0.00000000E+00
  0.00000000E+00  0.00000000E+00  0.00000000E+00
  0.00000000E+00  0.00000000E+00  0.00000000E+00
  0.00000000E+00  0.00000000E+00  0.00000000E+00
  0.00000000E+00  0.00000000E+00  0.00000000E+00
  0.00000000E+00  0.00000000E+00  0.00000000E+00
  0.00000000E+00  0.00000000E+00  0.00000000E+00
  0.00000000E+00  0.00000000E+00  0.00000000E+00
  0.00000000E+00  0.00000000E+00  0.00000000E+00
  0.00000000E+00  0.00000000E+00  0.00000000E+00
  0.00000000E+00  0.00000000E+00  0.00000000E+00
  0.00000000E+00  0.00000000E+00  0.00000000E+00
  0.00000000E+00  0.00000000E+00  0.00000000E+00
  0.00000000E+00  0.00000000E+00  0.00000000E+00
  0.00000000E+00  0.00000000E+00  0.00000000E+00
  0.00000000E+00  0.00000000E+00  0.00000000E+00
  0.00000000E+00  0.00000000E+00  0.00000000E+00
  0.00000000E+00  0.00000000E+00  0.00000000E+00
  0.00000000E+00  0.00000000E+00  0.00000000E+00
