Na
 1.0000000000000000
    12.8700000000000010    0.0000000000000000    0.0000000000000000
     0.0000000000000000   12.8700000000000010    0.0000000000000000
     0.0000000000000000    0.0000000000000000   39.3049999999999997
 Na 
  90
Direct
  0.0000000000000000  0.0000000000000000  0.2544205571810202
  0.1666666666666667  0.1666666666666667  0.3089937666963491
  0.0000000000000000  0.0000000000000000  0.3635669762116779
  0.1666666666666667  0.1666666666666667  0.4181401857270068
  0.0000000000000000  0.0000000000000000  0.4727133952423356
  0.1666666666666667  0.1666666666666667  0.5272866047576645
  0.0000000000000000  0.0000000000000000  0.5818598142729933
  0.1666666666666667  0.1666666666666667  0.6364330237883221
  0.0000000000000000  0.0000000000000000  0.6910062333036510
  0.1666666666666667  0.1666666666666667  0.7455794428189798
  0.0000000000000000  0.3333333333333333  0.2544205571810202
  0.1666666666666667  0.5000000000000000  0.3089937666963491
  0.0000000000000000  0.3333333333333333  0.3635669762116779
  0.1666666666666667  0.5000000000000000  0.4181401857270068
  0.0000000000000000  0.3333333333333333  0.4727133952423356
  0.1666666666666667  0.5000000000000000  0.5272866047576645
  0.0000000000000000  0.3333333333333333  0.5818598142729933
  0.1666666666666667  0.5000000000000000  0.6364330237883221
  0.0000000000000000  0.3333333333333333  0.6910062333036510
  0.1666666666666667  0.5000000000000000  0.7455794428189798
  0.0000000000000000  0.6666666666666666  0.2544205571810202
  0.1666666666666667  0.8333333333333333  0.3089937666963491
  0.0000000000000000  0.6666666666666666  0.3635669762116779
  0.1666666666666667  0.8333333333333333  0.4181401857270068
  0.0000000000000000  0.6666666666666666  0.4727133952423356
  0.1666666666666667  0.8333333333333333  0.5272866047576645
  0.0000000000000000  0.6666666666666666  0.5818598142729933
  0.1666666666666667  0.8333333333333333  0.6364330237883221
  0.0000000000000000  0.6666666666666666  0.6910062333036510
  0.1666666666666667  0.8333333333333333  0.7455794428189798
  0.3333333333333333  0.0000000000000000  0.2544205571810202
  0.5000000000000000  0.1666666666666667  0.3089937666963491
  0.3333333333333333  0.0000000000000000  0.3635669762116779
  0.5000000000000000  0.1666666666666667  0.4181401857270068
  0.3333333333333333  0.0000000000000000  0.4727133952423356
  0.5000000000000000  0.1666666666666667  0.5272866047576645
  0.3333333333333333  0.0000000000000000  0.5818598142729933
  0.5000000000000000  0.1666666666666667  0.6364330237883221
  0.3333333333333333  0.0000000000000000  0.6910062333036510
  0.5000000000000000  0.1666666666666667  0.7455794428189798
  0.3333333333333333  0.3333333333333333  0.2544205571810202
  0.5000000000000000  0.5000000000000000  0.3089937666963491
  0.3333333333333333  0.3333333333333333  0.3635669762116779
  0.5000000000000000  0.5000000000000000  0.4181401857270068
  0.3333333333333333  0.3333333333333333  0.4727133952423356
  0.5000000000000000  0.5000000000000000  0.5272866047576645
  0.3333333333333333  0.3333333333333333  0.5818598142729933
  0.5000000000000000  0.5000000000000000  0.6364330237883221
  0.3333333333333333  0.3333333333333333  0.6910062333036510
  0.5000000000000000  0.5000000000000000  0.7455794428189798
  0.3333333333333333  0.6666666666666666  0.2544205571810202
  0.5000000000000000  0.8333333333333333  0.3089937666963491
  0.3333333333333333  0.6666666666666666  0.3635669762116779
  0.5000000000000000  0.8333333333333333  0.4181401857270068
  0.3333333333333333  0.6666666666666666  0.4727133952423356
  0.5000000000000000  0.8333333333333333  0.5272866047576645
  0.3333333333333333  0.6666666666666666  0.5818598142729933
  0.5000000000000000  0.8333333333333333  0.6364330237883221
  0.3333333333333333  0.6666666666666666  0.6910062333036510
  0.5000000000000000  0.8333333333333333  0.7455794428189798
  0.6666666666666666  0.0000000000000000  0.2544205571810202
  0.8333333333333333  0.1666666666666667  0.3089937666963491
  0.6666666666666666  0.0000000000000000  0.3635669762116779
  0.8333333333333333  0.1666666666666667  0.4181401857270068
  0.6666666666666666  0.0000000000000000  0.4727133952423356
  0.8333333333333333  0.1666666666666667  0.5272866047576645
  0.6666666666666666  0.0000000000000000  0.5818598142729933
  0.8333333333333333  0.1666666666666667  0.6364330237883221
  0.6666666666666666  0.0000000000000000  0.6910062333036510
  0.8333333333333333  0.1666666666666667  0.7455794428189798
  0.6666666666666666  0.3333333333333333  0.2544205571810202
  0.8333333333333333  0.5000000000000000  0.3089937666963491
  0.6666666666666666  0.3333333333333333  0.3635669762116779
  0.8333333333333333  0.5000000000000000  0.4181401857270068
  0.6666666666666666  0.3333333333333333  0.4727133952423356
  0.8333333333333333  0.5000000000000000  0.5272866047576645
  0.6666666666666666  0.3333333333333333  0.5818598142729933
  0.8333333333333333  0.5000000000000000  0.6364330237883221
  0.6666666666666666  0.3333333333333333  0.6910062333036510
  0.8333333333333333  0.5000000000000000  0.7455794428189798
  0.6666666666666666  0.6666666666666666  0.2544205571810202
  0.8333333333333333  0.8333333333333333  0.3089937666963491
  0.6666666666666666  0.6666666666666666  0.3635669762116779
  0.8333333333333333  0.8333333333333333  0.4181401857270068
  0.6666666666666666  0.6666666666666666  0.4727133952423356
  0.8333333333333333  0.8333333333333333  0.5272866047576645
  0.6666666666666666  0.6666666666666666  0.5818598142729933
  0.8333333333333333  0.8333333333333333  0.6364330237883221
  0.6666666666666666  0.6666666666666666  0.6910062333036510
  0.8333333333333333  0.8333333333333333  0.7455794428189798
