Na(100)/EC 6-layer initial interface - optB86b-vdW
1.00000000000000
 12.529989000000 0.000000000000 0.000000000000
 0.000000000000 12.529989000000 0.000000000000
 0.000000000000 0.000000000000 41.350254610898
Na O C H
54 3 3 4
Selective dynamics
Direct
0.000000000000 0.000000000000 0.239808153500 F F F
0.000000000000 0.333333333300 0.239808153500 F F F
0.000000000000 0.666666666700 0.239808153500 F F F
0.333333333300 0.000000000000 0.239808153500 F F F
0.333333333300 0.333333333300 0.239808153500 F F F
0.333333333300 0.666666666700 0.239808153500 F F F
0.666666666700 0.000000000000 0.239808153500 F F F
0.666666666700 0.333333333300 0.239808153500 F F F
0.666666666700 0.666666666700 0.239808153500 F F F
0.166666666700 0.166666666700 0.289888045600 F F F
0.166666666700 0.500000000000 0.289888045600 F F F
0.166666666700 0.833333333300 0.289888045600 F F F
0.500000000000 0.166666666700 0.289888045600 F F F
0.500000000000 0.500000000000 0.289888045600 F F F
0.500000000000 0.833333333300 0.289888045600 F F F
0.833333333300 0.166666666700 0.289888045600 F F F
0.833333333300 0.500000000000 0.289888045600 F F F
0.833333333300 0.833333333300 0.289888045600 F F F
0.000000001445 0.000000002856 0.340313700910 T T T
0.000000013937 0.333333346259 0.340313702697 T T T
0.999999964503 0.666666669354 0.340313702288 T T T
0.333333357569 0.000000046066 0.340313705683 T T T
0.333333360249 0.333333342801 0.340313720269 T T T
0.333333304488 0.666666742992 0.340313711277 T T T
0.666666655210 0.000000057065 0.340313726703 T T T
0.666666587234 0.333333337641 0.340313711463 T T T
0.666666681724 0.666666680509 0.340313717233 T T T
0.166666650510 0.166666732489 0.389712638174 T T T
0.166666671333 0.499999995018 0.389712610720 T T T
0.166666693647 0.833333356240 0.389712638050 T T T
0.500000038584 0.166666643373 0.389712606866 T T T
0.499999970943 0.500000006159 0.389712622240 T T T
0.499999950061 0.833333287080 0.389712617097 T T T
0.833333343934 0.166666641104 0.389712631105 T T T
0.833333349882 0.499999935636 0.389712632431 T T T
0.833333307452 0.833333350165 0.389712613264 T T T
0.999999965334 0.000000047209 0.439554508580 T T T
0.000000039107 0.333333347666 0.439554524484 T T T
0.000000005501 0.666666605527 0.439554512449 T T T
0.333333360312 0.000000012533 0.439554504501 T T T
0.333333348521 0.333333383368 0.439554506127 T T T
0.333333355826 0.666666617767 0.439554511242 T T T
0.666666656738 0.000000020453 0.439554514787 T T T
0.666666641619 0.333333294755 0.439554516540 T T T
0.666666611151 0.666666625877 0.439554521525 T T T
0.166666740132 0.166666683266 0.490660824463 T T T
0.166666714808 0.499999918354 0.490660825261 T T T
0.166666723350 0.833333411662 0.490660826159 T T T
0.499999971540 0.166666666725 0.490660834703 T T T
0.499999955313 0.500000029206 0.490660839867 T T T
0.499999954546 0.833333327752 0.490660841882 T T T
0.833333323059 0.166666645110 0.490660829372 T T T
0.833333377974 0.499999971206 0.490660813835 T T T
0.833333300261 0.833333297580 0.490660810157 T T T
0.559217446348 0.590100075953 0.606239786875 T T T
0.560375389458 0.410634269438 0.609108358609 T T T
0.718157733476 0.501063406869 0.605777216151 T T T
0.449469643409 0.559830043552 0.611996168386 T T T
0.449498594705 0.439839412637 0.605110304600 T T T
0.622099080724 0.500628930581 0.606925278164 T T T
0.398287467257 0.605712422245 0.595566877670 T T T
0.429361504274 0.578852959795 0.637245280805 T T T
0.401647685465 0.393186821152 0.622221431778 T T T
0.425311466679 0.420857567898 0.580145098912 T T T
