O  C  H                                 
   1.00000000000000     
    15.0000000000000000    0.0000000000000000    0.0000000000000000
     0.0000000000000000   15.0000000000000000    0.0000000000000000
     0.0000000000000000    0.0000000000000000   15.0000000000000000
  O               C               H             
     3     3     4
Direct
     0.5029808930761344    0.5750271982979743    0.4949746293940749
     0.5032239578670149    0.4250910907098588    0.5044479558202829
     0.6355862240163928    0.5002576814515037    0.4997841212968572
     0.4112379287642658    0.5498802044525806    0.5102801520978997
     0.4112965315177913    0.4499798238985077    0.4898678698690643
     0.5553913411169192    0.5001419466902057    0.4997395166317671
     0.3685583488896126    0.5891412645607070    0.4658253837867262
     0.3944410896961667    0.5644668006832149    0.5802000201986018
     0.3691265043369594    0.4105869236229360    0.5346923269282511
     0.3939238473854012    0.4353337322991794    0.4201013573097920
 
  0.00000000E+00  0.00000000E+00  0.00000000E+00
  0.00000000E+00  0.00000000E+00  0.00000000E+00
  0.00000000E+00  0.00000000E+00  0.00000000E+00
  0.00000000E+00  0.00000000E+00  0.00000000E+00
  0.00000000E+00  0.00000000E+00  0.00000000E+00
  0.00000000E+00  0.00000000E+00  0.00000000E+00
  0.00000000E+00  0.00000000E+00  0.00000000E+00
  0.00000000E+00  0.00000000E+00  0.00000000E+00
  0.00000000E+00  0.00000000E+00  0.00000000E+00
  0.00000000E+00  0.00000000E+00  0.00000000E+00
