Na O  C  H 
 1.0000000000000000
    12.8700000000000010    0.0000000000000000    0.0000000000000000
     0.0000000000000000   12.8700000000000010    0.0000000000000000
     0.0000000000000000    0.0000000000000000   49.6476729823764487
 Na  O   C   H  
  90   3   3   4
Direct
  0.0000000000000000  0.0000000000000000  0.2126747605009361
  0.1666666666666643  0.1666666666666643  0.2530882380661781
  0.0000000000000000  0.0000000000000000  0.2935485112240070
  0.1666666666666643  0.1666666666666643  0.3341364252986120
  0.0000000000000000  0.0000000000000000  0.3755585596719679
  0.1666666666666643  0.1666666666666643  0.4161200354950642
  0.0000000000000000  0.0000000000000000  0.4575421698684200
  0.1666666666666643  0.1666666666666643  0.4981300839430249
  0.0000000000000000  0.0000000000000000  0.5385903571008593
  0.1666666666666643  0.1666666666666643  0.5790038346660960
  0.0000000000000000  0.3333333333333358  0.2126747605009361
  0.1666666666666643  0.5000000000000000  0.2530882380661781
  0.0000000000000000  0.3333333333333358  0.2935485112240070
  0.1666666666666643  0.5000000000000000  0.3341364252986120
  0.0000000000000000  0.3333333333333358  0.3755585596719679
  0.1666666666666643  0.5000000000000000  0.4161200354950642
  0.0000000000000000  0.3333333333333358  0.4575421698684200
  0.1666666666666643  0.5000000000000000  0.4981300839430249
  0.0000000000000000  0.3333333333333358  0.5385903571008593
  0.1666666666666643  0.5000000000000000  0.5790038346660960
  0.0000000000000000  0.6666666666666643  0.2126747605009361
  0.1666666666666643  0.8333333333333357  0.2530882380661781
  0.0000000000000000  0.6666666666666643  0.2935485112240070
  0.1666666666666643  0.8333333333333357  0.3341364252986120
  0.0000000000000000  0.6666666666666643  0.3755585596719679
  0.1666666666666643  0.8333333333333357  0.4161200354950642
  0.0000000000000000  0.6666666666666643  0.4575421698684200
  0.1666666666666643  0.8333333333333357  0.4981300839430249
  0.0000000000000000  0.6666666666666643  0.5385903571008593
  0.1666666666666643  0.8333333333333357  0.5790038346660960
  0.3333333333333358  0.0000000000000000  0.2126747605009361
  0.5000000000000000  0.1666666666666643  0.2530882380661781
  0.3333333333333358  0.0000000000000000  0.2935485112240070
  0.5000000000000000  0.1666666666666643  0.3341364252986120
  0.3333333333333358  0.0000000000000000  0.3755585596719679
  0.5000000000000000  0.1666666666666643  0.4161200354950642
  0.3333333333333358  0.0000000000000000  0.4575421698684200
  0.5000000000000000  0.1666666666666643  0.4981300839430249
  0.3333333333333358  0.0000000000000000  0.5385903571008593
  0.5000000000000000  0.1666666666666643  0.5790038346660960
  0.3333333333333358  0.3333333333333358  0.2126747605009361
  0.5000000000000000  0.5000000000000000  0.2530882380661781
  0.3333333333333358  0.3333333333333358  0.2935485112240070
  0.5000000000000000  0.5000000000000000  0.3341364252986120
  0.3333333333333358  0.3333333333333358  0.3755585596719679
  0.5000000000000000  0.5000000000000000  0.4161200354950642
  0.3333333333333358  0.3333333333333358  0.4575421698684200
  0.5000000000000000  0.5000000000000000  0.4981300839430249
  0.3333333333333358  0.3333333333333358  0.5385903571008593
  0.5000000000000000  0.5000000000000000  0.5790038346660960
  0.3333333333333358  0.6666666666666643  0.2126747605009361
  0.5000000000000000  0.8333333333333357  0.2530882380661781
  0.3333333333333358  0.6666666666666643  0.2935485112240070
  0.5000000000000000  0.8333333333333357  0.3341364252986120
  0.3333333333333358  0.6666666666666643  0.3755585596719679
  0.5000000000000000  0.8333333333333357  0.4161200354950642
  0.3333333333333358  0.6666666666666643  0.4575421698684200
  0.5000000000000000  0.8333333333333357  0.4981300839430249
  0.3333333333333358  0.6666666666666643  0.5385903571008593
  0.5000000000000000  0.8333333333333357  0.5790038346660960
  0.6666666666666643  0.0000000000000000  0.2126747605009361
  0.8333333333333357  0.1666666666666643  0.2530882380661781
  0.6666666666666643  0.0000000000000000  0.2935485112240070
  0.8333333333333357  0.1666666666666643  0.3341364252986120
  0.6666666666666643  0.0000000000000000  0.3755585596719679
  0.8333333333333357  0.1666666666666643  0.4161200354950642
  0.6666666666666643  0.0000000000000000  0.4575421698684200
  0.8333333333333357  0.1666666666666643  0.4981300839430249
  0.6666666666666643  0.0000000000000000  0.5385903571008593
  0.8333333333333357  0.1666666666666643  0.5790038346660960
  0.6666666666666643  0.3333333333333358  0.2126747605009361
  0.8333333333333357  0.5000000000000000  0.2530882380661781
  0.6666666666666643  0.3333333333333358  0.2935485112240070
  0.8333333333333357  0.5000000000000000  0.3341364252986120
  0.6666666666666643  0.3333333333333358  0.3755585596719679
  0.8333333333333357  0.5000000000000000  0.4161200354950642
  0.6666666666666643  0.3333333333333358  0.4575421698684200
  0.8333333333333357  0.5000000000000000  0.4981300839430249
  0.6666666666666643  0.3333333333333358  0.5385903571008593
  0.8333333333333357  0.5000000000000000  0.5790038346660960
  0.6666666666666643  0.6666666666666643  0.2126747605009361
  0.8333333333333357  0.8333333333333357  0.2530882380661781
  0.6666666666666643  0.6666666666666643  0.2935485112240070
  0.8333333333333357  0.8333333333333357  0.3341364252986120
  0.6666666666666643  0.6666666666666643  0.3755585596719679
  0.8333333333333357  0.8333333333333357  0.4161200354950642
  0.6666666666666643  0.6666666666666643  0.4575421698684200
  0.8333333333333357  0.8333333333333357  0.4981300839430249
  0.6666666666666643  0.6666666666666643  0.5385903571008593
  0.8333333333333357  0.8333333333333357  0.5790038346660960
  0.5564151822954179  0.5874551650714540  0.6721219770391599
  0.5566984745924815  0.4127044569267972  0.6749841433373378
  0.7109668500579569  0.5003112060429334  0.6735750638448061
  0.4494886504634034  0.5581463144357969  0.6767462187561657
  0.4495569520409388  0.4417123044660151  0.6705790770747979
  0.6174996205713910  0.5001763170437517  0.6735615874835559
  0.3997455503763949  0.6039051257506296  0.6633151456642949
  0.4299119149527983  0.5751470093432961  0.6978710360639745
  0.4004077362124635  0.3957998332823650  0.6841218438450849
  0.4293090684367546  0.4246422676369610  0.6495005929178354
Cartesian
  0.0000000000000000  0.0000000000000000  0.0000000000000000
  0.0000000000000000  0.0000000000000000  0.0000000000000000
  0.0000000000000000  0.0000000000000000  0.0000000000000000
  0.0000000000000000  0.0000000000000000  0.0000000000000000
  0.0000000000000000  0.0000000000000000  0.0000000000000000
  0.0000000000000000  0.0000000000000000  0.0000000000000000
  0.0000000000000000  0.0000000000000000  0.0000000000000000
  0.0000000000000000  0.0000000000000000  0.0000000000000000
  0.0000000000000000  0.0000000000000000  0.0000000000000000
  0.0000000000000000  0.0000000000000000  0.0000000000000000
  0.0000000000000000  0.0000000000000000  0.0000000000000000
  0.0000000000000000  0.0000000000000000  0.0000000000000000
  0.0000000000000000  0.0000000000000000  0.0000000000000000
  0.0000000000000000  0.0000000000000000  0.0000000000000000
  0.0000000000000000  0.0000000000000000  0.0000000000000000
  0.0000000000000000  0.0000000000000000  0.0000000000000000
  0.0000000000000000  0.0000000000000000  0.0000000000000000
  0.0000000000000000  0.0000000000000000  0.0000000000000000
  0.0000000000000000  0.0000000000000000  0.0000000000000000
  0.0000000000000000  0.0000000000000000  0.0000000000000000
  0.0000000000000000  0.0000000000000000  0.0000000000000000
  0.0000000000000000  0.0000000000000000  0.0000000000000000
  0.0000000000000000  0.0000000000000000  0.0000000000000000
  0.0000000000000000  0.0000000000000000  0.0000000000000000
  0.0000000000000000  0.0000000000000000  0.0000000000000000
  0.0000000000000000  0.0000000000000000  0.0000000000000000
  0.0000000000000000  0.0000000000000000  0.0000000000000000
  0.0000000000000000  0.0000000000000000  0.0000000000000000
  0.0000000000000000  0.0000000000000000  0.0000000000000000
  0.0000000000000000  0.0000000000000000  0.0000000000000000
  0.0000000000000000  0.0000000000000000  0.0000000000000000
  0.0000000000000000  0.0000000000000000  0.0000000000000000
  0.0000000000000000  0.0000000000000000  0.0000000000000000
  0.0000000000000000  0.0000000000000000  0.0000000000000000
  0.0000000000000000  0.0000000000000000  0.0000000000000000
  0.0000000000000000  0.0000000000000000  0.0000000000000000
  0.0000000000000000  0.0000000000000000  0.0000000000000000
  0.0000000000000000  0.0000000000000000  0.0000000000000000
  0.0000000000000000  0.0000000000000000  0.0000000000000000
  0.0000000000000000  0.0000000000000000  0.0000000000000000
  0.0000000000000000  0.0000000000000000  0.0000000000000000
  0.0000000000000000  0.0000000000000000  0.0000000000000000
  0.0000000000000000  0.0000000000000000  0.0000000000000000
  0.0000000000000000  0.0000000000000000  0.0000000000000000
  0.0000000000000000  0.0000000000000000  0.0000000000000000
  0.0000000000000000  0.0000000000000000  0.0000000000000000
  0.0000000000000000  0.0000000000000000  0.0000000000000000
  0.0000000000000000  0.0000000000000000  0.0000000000000000
  0.0000000000000000  0.0000000000000000  0.0000000000000000
  0.0000000000000000  0.0000000000000000  0.0000000000000000
  0.0000000000000000  0.0000000000000000  0.0000000000000000
  0.0000000000000000  0.0000000000000000  0.0000000000000000
  0.0000000000000000  0.0000000000000000  0.0000000000000000
  0.0000000000000000  0.0000000000000000  0.0000000000000000
  0.0000000000000000  0.0000000000000000  0.0000000000000000
  0.0000000000000000  0.0000000000000000  0.0000000000000000
  0.0000000000000000  0.0000000000000000  0.0000000000000000
  0.0000000000000000  0.0000000000000000  0.0000000000000000
  0.0000000000000000  0.0000000000000000  0.0000000000000000
  0.0000000000000000  0.0000000000000000  0.0000000000000000
  0.0000000000000000  0.0000000000000000  0.0000000000000000
  0.0000000000000000  0.0000000000000000  0.0000000000000000
  0.0000000000000000  0.0000000000000000  0.0000000000000000
  0.0000000000000000  0.0000000000000000  0.0000000000000000
  0.0000000000000000  0.0000000000000000  0.0000000000000000
  0.0000000000000000  0.0000000000000000  0.0000000000000000
  0.0000000000000000  0.0000000000000000  0.0000000000000000
  0.0000000000000000  0.0000000000000000  0.0000000000000000
  0.0000000000000000  0.0000000000000000  0.0000000000000000
  0.0000000000000000  0.0000000000000000  0.0000000000000000
  0.0000000000000000  0.0000000000000000  0.0000000000000000
  0.0000000000000000  0.0000000000000000  0.0000000000000000
  0.0000000000000000  0.0000000000000000  0.0000000000000000
  0.0000000000000000  0.0000000000000000  0.0000000000000000
  0.0000000000000000  0.0000000000000000  0.0000000000000000
  0.0000000000000000  0.0000000000000000  0.0000000000000000
  0.0000000000000000  0.0000000000000000  0.0000000000000000
  0.0000000000000000  0.0000000000000000  0.0000000000000000
  0.0000000000000000  0.0000000000000000  0.0000000000000000
  0.0000000000000000  0.0000000000000000  0.0000000000000000
  0.0000000000000000  0.0000000000000000  0.0000000000000000
  0.0000000000000000  0.0000000000000000  0.0000000000000000
  0.0000000000000000  0.0000000000000000  0.0000000000000000
  0.0000000000000000  0.0000000000000000  0.0000000000000000
  0.0000000000000000  0.0000000000000000  0.0000000000000000
  0.0000000000000000  0.0000000000000000  0.0000000000000000
  0.0000000000000000  0.0000000000000000  0.0000000000000000
  0.0000000000000000  0.0000000000000000  0.0000000000000000
  0.0000000000000000  0.0000000000000000  0.0000000000000000
  0.0000000000000000  0.0000000000000000  0.0000000000000000
  0.0000000000000000  0.0000000000000000  0.0000000000000000
  0.0000000000000000  0.0000000000000000  0.0000000000000000
  0.0000000000000000  0.0000000000000000  0.0000000000000000
  0.0000000000000000  0.0000000000000000  0.0000000000000000
  0.0000000000000000  0.0000000000000000  0.0000000000000000
  0.0000000000000000  0.0000000000000000  0.0000000000000000
  0.0000000000000000  0.0000000000000000  0.0000000000000000
  0.0000000000000000  0.0000000000000000  0.0000000000000000
  0.0000000000000000  0.0000000000000000  0.0000000000000000
  0.0000000000000000  0.0000000000000000  0.0000000000000000
