Na                                      
   1.00000000000000     
    12.8700000000000010    0.0000000000000000    0.0000000000000000
     0.0000000000000000   12.8700000000000010    0.0000000000000000
     0.0000000000000000    0.0000000000000000   39.3049999999999997
  Na            
    90
Direct
     0.0000000000000000    0.0000000000000000    0.2554116732859648
     0.1666666666666643    0.1666666666666643    0.3071118664117059
     0.0000000000000000    0.0000000000000000    0.3632769396852298
     0.1666666666666643    0.1666666666666643    0.4185825866590832
     0.0000000000000000    0.0000000000000000    0.4720276810336735
     0.1666666666666643    0.1666666666666643    0.5279723189663265
     0.0000000000000000    0.0000000000000000    0.5814174133409168
     0.1666666666666643    0.1666666666666643    0.6367230603147702
     0.0000000000000000    0.0000000000000000    0.6928881335882942
     0.1666666666666643    0.1666666666666643    0.7445883267140353
     0.0000000000000000    0.3333333333333357    0.2554116732859648
     0.1666666666666643    0.5000000000000000    0.3071118664117059
     0.0000000000000000    0.3333333333333357    0.3632769396852298
     0.1666666666666643    0.5000000000000000    0.4185825866590832
     0.0000000000000000    0.3333333333333357    0.4720276810336735
     0.1666666666666643    0.5000000000000000    0.5279723189663265
     0.0000000000000000    0.3333333333333357    0.5814174133409168
     0.1666666666666643    0.5000000000000000    0.6367230603147702
     0.0000000000000000    0.3333333333333357    0.6928881335882942
     0.1666666666666643    0.5000000000000000    0.7445883267140353
     0.0000000000000000    0.6666666666666643    0.2554116732859648
     0.1666666666666643    0.8333333333333357    0.3071118664117059
     0.0000000000000000    0.6666666666666643    0.3632769396852298
     0.1666666666666643    0.8333333333333357    0.4185825866590832
     0.0000000000000000    0.6666666666666643    0.4720276810336735
     0.1666666666666643    0.8333333333333357    0.5279723189663265
     0.0000000000000000    0.6666666666666643    0.5814174133409168
     0.1666666666666643    0.8333333333333357    0.6367230603147702
     0.0000000000000000    0.6666666666666643    0.6928881335882942
     0.1666666666666643    0.8333333333333357    0.7445883267140353
     0.3333333333333357    0.0000000000000000    0.2554116732859648
     0.5000000000000000    0.1666666666666643    0.3071118664117059
     0.3333333333333357    0.0000000000000000    0.3632769396852298
     0.5000000000000000    0.1666666666666643    0.4185825866590832
     0.3333333333333357    0.0000000000000000    0.4720276810336735
     0.5000000000000000    0.1666666666666643    0.5279723189663265
     0.3333333333333357    0.0000000000000000    0.5814174133409168
     0.5000000000000000    0.1666666666666643    0.6367230603147702
     0.3333333333333357    0.0000000000000000    0.6928881335882942
     0.5000000000000000    0.1666666666666643    0.7445883267140353
     0.3333333333333357    0.3333333333333357    0.2554116732859648
     0.5000000000000000    0.5000000000000000    0.3071118664117059
     0.3333333333333357    0.3333333333333357    0.3632769396852298
     0.5000000000000000    0.5000000000000000    0.4185825866590832
     0.3333333333333357    0.3333333333333357    0.4720276810336735
     0.5000000000000000    0.5000000000000000    0.5279723189663265
     0.3333333333333357    0.3333333333333357    0.5814174133409168
     0.5000000000000000    0.5000000000000000    0.6367230603147702
     0.3333333333333357    0.3333333333333357    0.6928881335882942
     0.5000000000000000    0.5000000000000000    0.7445883267140353
     0.3333333333333357    0.6666666666666643    0.2554116732859648
     0.5000000000000000    0.8333333333333357    0.3071118664117059
     0.3333333333333357    0.6666666666666643    0.3632769396852298
     0.5000000000000000    0.8333333333333357    0.4185825866590832
     0.3333333333333357    0.6666666666666643    0.4720276810336735
     0.5000000000000000    0.8333333333333357    0.5279723189663265
     0.3333333333333357    0.6666666666666643    0.5814174133409168
     0.5000000000000000    0.8333333333333357    0.6367230603147702
     0.3333333333333357    0.6666666666666643    0.6928881335882942
     0.5000000000000000    0.8333333333333357    0.7445883267140353
     0.6666666666666643    0.0000000000000000    0.2554116732859648
     0.8333333333333357    0.1666666666666643    0.3071118664117059
     0.6666666666666643    0.0000000000000000    0.3632769396852298
     0.8333333333333357    0.1666666666666643    0.4185825866590832
     0.6666666666666643    0.0000000000000000    0.4720276810336735
     0.8333333333333357    0.1666666666666643    0.5279723189663265
     0.6666666666666643    0.0000000000000000    0.5814174133409168
     0.8333333333333357    0.1666666666666643    0.6367230603147702
     0.6666666666666643    0.0000000000000000    0.6928881335882942
     0.8333333333333357    0.1666666666666643    0.7445883267140353
     0.6666666666666643    0.3333333333333357    0.2554116732859648
     0.8333333333333357    0.5000000000000000    0.3071118664117059
     0.6666666666666643    0.3333333333333357    0.3632769396852298
     0.8333333333333357    0.5000000000000000    0.4185825866590832
     0.6666666666666643    0.3333333333333357    0.4720276810336735
     0.8333333333333357    0.5000000000000000    0.5279723189663265
     0.6666666666666643    0.3333333333333357    0.5814174133409168
     0.8333333333333357    0.5000000000000000    0.6367230603147702
     0.6666666666666643    0.3333333333333357    0.6928881335882942
     0.8333333333333357    0.5000000000000000    0.7445883267140353
     0.6666666666666643    0.6666666666666643    0.2554116732859648
     0.8333333333333357    0.8333333333333357    0.3071118664117059
     0.6666666666666643    0.6666666666666643    0.3632769396852298
     0.8333333333333357    0.8333333333333357    0.4185825866590832
     0.6666666666666643    0.6666666666666643    0.4720276810336735
     0.8333333333333357    0.8333333333333357    0.5279723189663265
     0.6666666666666643    0.6666666666666643    0.5814174133409168
     0.8333333333333357    0.8333333333333357    0.6367230603147702
     0.6666666666666643    0.6666666666666643    0.6928881335882942
     0.8333333333333357    0.8333333333333357    0.7445883267140353
 
  0.00000000E+00  0.00000000E+00  0.00000000E+00
  0.00000000E+00  0.00000000E+00  0.00000000E+00
  0.00000000E+00  0.00000000E+00  0.00000000E+00
  0.00000000E+00  0.00000000E+00  0.00000000E+00
  0.00000000E+00  0.00000000E+00  0.00000000E+00
  0.00000000E+00  0.00000000E+00  0.00000000E+00
  0.00000000E+00  0.00000000E+00  0.00000000E+00
  0.00000000E+00  0.00000000E+00  0.00000000E+00
  0.00000000E+00  0.00000000E+00  0.00000000E+00
  0.00000000E+00  0.00000000E+00  0.00000000E+00
  0.00000000E+00  0.00000000E+00  0.00000000E+00
  0.00000000E+00  0.00000000E+00  0.00000000E+00
  0.00000000E+00  0.00000000E+00  0.00000000E+00
  0.00000000E+00  0.00000000E+00  0.00000000E+00
  0.00000000E+00  0.00000000E+00  0.00000000E+00
  0.00000000E+00  0.00000000E+00  0.00000000E+00
  0.00000000E+00  0.00000000E+00  0.00000000E+00
  0.00000000E+00  0.00000000E+00  0.00000000E+00
  0.00000000E+00  0.00000000E+00  0.00000000E+00
  0.00000000E+00  0.00000000E+00  0.00000000E+00
  0.00000000E+00  0.00000000E+00  0.00000000E+00
  0.00000000E+00  0.00000000E+00  0.00000000E+00
  0.00000000E+00  0.00000000E+00  0.00000000E+00
  0.00000000E+00  0.00000000E+00  0.00000000E+00
  0.00000000E+00  0.00000000E+00  0.00000000E+00
  0.00000000E+00  0.00000000E+00  0.00000000E+00
  0.00000000E+00  0.00000000E+00  0.00000000E+00
  0.00000000E+00  0.00000000E+00  0.00000000E+00
  0.00000000E+00  0.00000000E+00  0.00000000E+00
  0.00000000E+00  0.00000000E+00  0.00000000E+00
  0.00000000E+00  0.00000000E+00  0.00000000E+00
  0.00000000E+00  0.00000000E+00  0.00000000E+00
  0.00000000E+00  0.00000000E+00  0.00000000E+00
  0.00000000E+00  0.00000000E+00  0.00000000E+00
  0.00000000E+00  0.00000000E+00  0.00000000E+00
  0.00000000E+00  0.00000000E+00  0.00000000E+00
  0.00000000E+00  0.00000000E+00  0.00000000E+00
  0.00000000E+00  0.00000000E+00  0.00000000E+00
  0.00000000E+00  0.00000000E+00  0.00000000E+00
  0.00000000E+00  0.00000000E+00  0.00000000E+00
  0.00000000E+00  0.00000000E+00  0.00000000E+00
  0.00000000E+00  0.00000000E+00  0.00000000E+00
  0.00000000E+00  0.00000000E+00  0.00000000E+00
  0.00000000E+00  0.00000000E+00  0.00000000E+00
  0.00000000E+00  0.00000000E+00  0.00000000E+00
  0.00000000E+00  0.00000000E+00  0.00000000E+00
  0.00000000E+00  0.00000000E+00  0.00000000E+00
  0.00000000E+00  0.00000000E+00  0.00000000E+00
  0.00000000E+00  0.00000000E+00  0.00000000E+00
  0.00000000E+00  0.00000000E+00  0.00000000E+00
  0.00000000E+00  0.00000000E+00  0.00000000E+00
  0.00000000E+00  0.00000000E+00  0.00000000E+00
  0.00000000E+00  0.00000000E+00  0.00000000E+00
  0.00000000E+00  0.00000000E+00  0.00000000E+00
  0.00000000E+00  0.00000000E+00  0.00000000E+00
  0.00000000E+00  0.00000000E+00  0.00000000E+00
  0.00000000E+00  0.00000000E+00  0.00000000E+00
  0.00000000E+00  0.00000000E+00  0.00000000E+00
  0.00000000E+00  0.00000000E+00  0.00000000E+00
  0.00000000E+00  0.00000000E+00  0.00000000E+00
  0.00000000E+00  0.00000000E+00  0.00000000E+00
  0.00000000E+00  0.00000000E+00  0.00000000E+00
  0.00000000E+00  0.00000000E+00  0.00000000E+00
  0.00000000E+00  0.00000000E+00  0.00000000E+00
  0.00000000E+00  0.00000000E+00  0.00000000E+00
  0.00000000E+00  0.00000000E+00  0.00000000E+00
  0.00000000E+00  0.00000000E+00  0.00000000E+00
  0.00000000E+00  0.00000000E+00  0.00000000E+00
  0.00000000E+00  0.00000000E+00  0.00000000E+00
  0.00000000E+00  0.00000000E+00  0.00000000E+00
  0.00000000E+00  0.00000000E+00  0.00000000E+00
  0.00000000E+00  0.00000000E+00  0.00000000E+00
  0.00000000E+00  0.00000000E+00  0.00000000E+00
  0.00000000E+00  0.00000000E+00  0.00000000E+00
  0.00000000E+00  0.00000000E+00  0.00000000E+00
  0.00000000E+00  0.00000000E+00  0.00000000E+00
  0.00000000E+00  0.00000000E+00  0.00000000E+00
  0.00000000E+00  0.00000000E+00  0.00000000E+00
  0.00000000E+00  0.00000000E+00  0.00000000E+00
  0.00000000E+00  0.00000000E+00  0.00000000E+00
  0.00000000E+00  0.00000000E+00  0.00000000E+00
  0.00000000E+00  0.00000000E+00  0.00000000E+00
  0.00000000E+00  0.00000000E+00  0.00000000E+00
  0.00000000E+00  0.00000000E+00  0.00000000E+00
  0.00000000E+00  0.00000000E+00  0.00000000E+00
  0.00000000E+00  0.00000000E+00  0.00000000E+00
  0.00000000E+00  0.00000000E+00  0.00000000E+00
  0.00000000E+00  0.00000000E+00  0.00000000E+00
  0.00000000E+00  0.00000000E+00  0.00000000E+00
  0.00000000E+00  0.00000000E+00  0.00000000E+00
