Na(100) 3x3 6-layer slab - optB86b-vdW lattice
1.00000000000000
 12.5299890000 0.0000000000 0.0000000000
 0.0000000000 12.5299890000 0.0000000000
 0.0000000000 0.0000000000 41.7000000000
Na
54
Selective dynamics
Direct
0.0000000000 0.0000000000 0.2398081535 F F F
0.0000000000 0.3333333333 0.2398081535 F F F
0.0000000000 0.6666666667 0.2398081535 F F F
0.3333333333 0.0000000000 0.2398081535 F F F
0.3333333333 0.3333333333 0.2398081535 F F F
0.3333333333 0.6666666667 0.2398081535 F F F
0.6666666667 0.0000000000 0.2398081535 F F F
0.6666666667 0.3333333333 0.2398081535 F F F
0.6666666667 0.6666666667 0.2398081535 F F F
0.1666666667 0.1666666667 0.2898880456 F F F
0.1666666667 0.5000000000 0.2898880456 F F F
0.1666666667 0.8333333333 0.2898880456 F F F
0.5000000000 0.1666666667 0.2898880456 F F F
0.5000000000 0.5000000000 0.2898880456 F F F
0.5000000000 0.8333333333 0.2898880456 F F F
0.8333333333 0.1666666667 0.2898880456 F F F
0.8333333333 0.5000000000 0.2898880456 F F F
0.8333333333 0.8333333333 0.2898880456 F F F
0.0000000000 0.0000000000 0.3399679376 T T T
0.0000000000 0.3333333333 0.3399679376 T T T
0.0000000000 0.6666666667 0.3399679376 T T T
0.3333333333 0.0000000000 0.3399679376 T T T
0.3333333333 0.3333333333 0.3399679376 T T T
0.3333333333 0.6666666667 0.3399679376 T T T
0.6666666667 0.0000000000 0.3399679376 T T T
0.6666666667 0.3333333333 0.3399679376 T T T
0.6666666667 0.6666666667 0.3399679376 T T T
0.1666666667 0.1666666667 0.3900478297 T T T
0.1666666667 0.5000000000 0.3900478297 T T T
0.1666666667 0.8333333333 0.3900478297 T T T
0.5000000000 0.1666666667 0.3900478297 T T T
0.5000000000 0.5000000000 0.3900478297 T T T
0.5000000000 0.8333333333 0.3900478297 T T T
0.8333333333 0.1666666667 0.3900478297 T T T
0.8333333333 0.5000000000 0.3900478297 T T T
0.8333333333 0.8333333333 0.3900478297 T T T
0.0000000000 0.0000000000 0.4401277218 T T T
0.0000000000 0.3333333333 0.4401277218 T T T
0.0000000000 0.6666666667 0.4401277218 T T T
0.3333333333 0.0000000000 0.4401277218 T T T
0.3333333333 0.3333333333 0.4401277218 T T T
0.3333333333 0.6666666667 0.4401277218 T T T
0.6666666667 0.0000000000 0.4401277218 T T T
0.6666666667 0.3333333333 0.4401277218 T T T
0.6666666667 0.6666666667 0.4401277218 T T T
0.1666666667 0.1666666667 0.4902076139 T T T
0.1666666667 0.5000000000 0.4902076139 T T T
0.1666666667 0.8333333333 0.4902076139 T T T
0.5000000000 0.1666666667 0.4902076139 T T T
0.5000000000 0.5000000000 0.4902076139 T T T
0.5000000000 0.8333333333 0.4902076139 T T T
0.8333333333 0.1666666667 0.4902076139 T T T
0.8333333333 0.5000000000 0.4902076139 T T T
0.8333333333 0.8333333333 0.4902076139 T T T
