O  C  H 
 1.0000000000000000
    15.0000000000000000    0.0000000000000000    0.0000000000000000
     0.0000000000000000   15.0000000000000000    0.0000000000000000
     0.0000000000000000    0.0000000000000000   15.0000000000000000
 O   C   H  
   3   3   4
Direct
  0.5015566666666667  0.5746199999999999  0.4925066666666666
  0.5015433333333332  0.4253466666666666  0.5074133333333334
  0.6349100000000000  0.4999800000000000  0.5000066666666666
  0.4125699999999999  0.5484933333333333  0.5114666666666666
  0.4125499999999999  0.4514933333333333  0.4885266666666666
  0.5534499999999999  0.4999800000000000  0.4999600000000000
  0.3650899999999999  0.5867599999999999  0.4715600000000000
  0.3995433333333333  0.5604266666666666  0.5823000000000000
  0.3650899999999999  0.4132400000000000  0.5284733333333332
  0.3994633333333333  0.4395666666666667  0.4177000000000000
