Na(100) 3x3 6-layer slab - optB86b-vdW l
   1.00000000000000     
    12.5299890000000005    0.0000000000000000    0.0000000000000000
     0.0000000000000000   12.5299890000000005    0.0000000000000000
     0.0000000000000000    0.0000000000000000   41.7000000000000028
  Na            
    54
Selective dynamics
Direct
     0.0000000000000000    0.0000000000000000    0.2398081535000003   F   F   F
     0.0000000000000000    0.3333333332999970    0.2398081535000003   F   F   F
     0.0000000000000000    0.6666666667000030    0.2398081535000003   F   F   F
     0.3333333332999970    0.0000000000000000    0.2398081535000003   F   F   F
     0.3333333332999970    0.3333333332999970    0.2398081535000003   F   F   F
     0.3333333332999970    0.6666666667000030    0.2398081535000003   F   F   F
     0.6666666667000030    0.0000000000000000    0.2398081535000003   F   F   F
     0.6666666667000030    0.3333333332999970    0.2398081535000003   F   F   F
     0.6666666667000030    0.6666666667000030    0.2398081535000003   F   F   F
     0.1666666667000030    0.1666666667000030    0.2898880456000015   F   F   F
     0.1666666667000030    0.5000000000000000    0.2898880456000015   F   F   F
     0.1666666667000030    0.8333333332999970    0.2898880456000015   F   F   F
     0.5000000000000000    0.1666666667000030    0.2898880456000015   F   F   F
     0.5000000000000000    0.5000000000000000    0.2898880456000015   F   F   F
     0.5000000000000000    0.8333333332999970    0.2898880456000015   F   F   F
     0.8333333332999970    0.1666666667000030    0.2898880456000015   F   F   F
     0.8333333332999970    0.5000000000000000    0.2898880456000015   F   F   F
     0.8333333332999970    0.8333333332999970    0.2898880456000015   F   F   F
     0.0000000014449310    0.0000000028557324    0.3403137009100595   T   T   T
     0.0000000139370384    0.3333333462592599    0.3403137026971980   T   T   T
     0.9999999645026483    0.6666666693536357    0.3403137022880066   T   T   T
     0.3333333575693431    0.0000000460655815    0.3403137056826521   T   T   T
     0.3333333602485880    0.3333333428014817    0.3403137202685173   T   T   T
     0.3333333044882263    0.6666667429922946    0.3403137112769908   T   T   T
     0.6666666552100881    0.0000000570651925    0.3403137267026233   T   T   T
     0.6666665872341488    0.3333333376411935    0.3403137114626615   T   T   T
     0.6666666817236997    0.6666666805087752    0.3403137172325770   T   T   T
     0.1666666505097258    0.1666667324891161    0.3897126381736086   T   T   T
     0.1666666713327805    0.4999999950183883    0.3897126107199375   T   T   T
     0.1666666936467349    0.8333333562401749    0.3897126380498471   T   T   T
     0.5000000385838085    0.1666666433726266    0.3897126068662222   T   T   T
     0.4999999709431144    0.5000000061587141    0.3897126222395560   T   T   T
     0.4999999500609361    0.8333332870803615    0.3897126170974708   T   T   T
     0.8333333439338713    0.1666666411042720    0.3897126311048484   T   T   T
     0.8333333498823705    0.4999999356356616    0.3897126324313195   T   T   T
     0.8333333074522665    0.8333333501651300    0.3897126132638988   T   T   T
     0.9999999653341464    0.0000000472092868    0.4395545085800678   T   T   T
     0.0000000391065269    0.3333333476657857    0.4395545244839115   T   T   T
     0.0000000055006807    0.6666666055272612    0.4395545124493342   T   T   T
     0.3333333603121449    0.0000000125325030    0.4395545045008313   T   T   T
     0.3333333485207369    0.3333333833676632    0.4395545061273041   T   T   T
     0.3333333558264193    0.6666666177667275    0.4395545112420992   T   T   T
     0.6666666567382908    0.0000000204527614    0.4395545147869918   T   T   T
     0.6666666416187581    0.3333332947550864    0.4395545165400466   T   T   T
     0.6666666111511531    0.6666666258765435    0.4395545215254842   T   T   T
     0.1666667401318246    0.1666666832656497    0.4906608244632354   T   T   T
     0.1666667148082291    0.4999999183535850    0.4906608252612475   T   T   T
     0.1666667233498417    0.8333334116616834    0.4906608261593453   T   T   T
     0.4999999715404434    0.1666666667250286    0.4906608347027975   T   T   T
     0.4999999553128614    0.5000000292056375    0.4906608398670407   T   T   T
     0.4999999545461551    0.8333333277517790    0.4906608418824643   T   T   T
     0.8333333230589713    0.1666666451104099    0.4906608293715017   T   T   T
     0.8333333779740564    0.4999999712060575    0.4906608138349663   T   T   T
     0.8333333002609324    0.8333332975803965    0.4906608101570636   T   T   T
 
  0.00000000E+00  0.00000000E+00  0.00000000E+00
  0.00000000E+00  0.00000000E+00  0.00000000E+00
  0.00000000E+00  0.00000000E+00  0.00000000E+00
  0.00000000E+00  0.00000000E+00  0.00000000E+00
  0.00000000E+00  0.00000000E+00  0.00000000E+00
  0.00000000E+00  0.00000000E+00  0.00000000E+00
  0.00000000E+00  0.00000000E+00  0.00000000E+00
  0.00000000E+00  0.00000000E+00  0.00000000E+00
  0.00000000E+00  0.00000000E+00  0.00000000E+00
  0.00000000E+00  0.00000000E+00  0.00000000E+00
  0.00000000E+00  0.00000000E+00  0.00000000E+00
  0.00000000E+00  0.00000000E+00  0.00000000E+00
  0.00000000E+00  0.00000000E+00  0.00000000E+00
  0.00000000E+00  0.00000000E+00  0.00000000E+00
  0.00000000E+00  0.00000000E+00  0.00000000E+00
  0.00000000E+00  0.00000000E+00  0.00000000E+00
  0.00000000E+00  0.00000000E+00  0.00000000E+00
  0.00000000E+00  0.00000000E+00  0.00000000E+00
  0.00000000E+00  0.00000000E+00  0.00000000E+00
  0.00000000E+00  0.00000000E+00  0.00000000E+00
  0.00000000E+00  0.00000000E+00  0.00000000E+00
  0.00000000E+00  0.00000000E+00  0.00000000E+00
  0.00000000E+00  0.00000000E+00  0.00000000E+00
  0.00000000E+00  0.00000000E+00  0.00000000E+00
  0.00000000E+00  0.00000000E+00  0.00000000E+00
  0.00000000E+00  0.00000000E+00  0.00000000E+00
  0.00000000E+00  0.00000000E+00  0.00000000E+00
  0.00000000E+00  0.00000000E+00  0.00000000E+00
  0.00000000E+00  0.00000000E+00  0.00000000E+00
  0.00000000E+00  0.00000000E+00  0.00000000E+00
  0.00000000E+00  0.00000000E+00  0.00000000E+00
  0.00000000E+00  0.00000000E+00  0.00000000E+00
  0.00000000E+00  0.00000000E+00  0.00000000E+00
  0.00000000E+00  0.00000000E+00  0.00000000E+00
  0.00000000E+00  0.00000000E+00  0.00000000E+00
  0.00000000E+00  0.00000000E+00  0.00000000E+00
  0.00000000E+00  0.00000000E+00  0.00000000E+00
  0.00000000E+00  0.00000000E+00  0.00000000E+00
  0.00000000E+00  0.00000000E+00  0.00000000E+00
  0.00000000E+00  0.00000000E+00  0.00000000E+00
  0.00000000E+00  0.00000000E+00  0.00000000E+00
  0.00000000E+00  0.00000000E+00  0.00000000E+00
  0.00000000E+00  0.00000000E+00  0.00000000E+00
  0.00000000E+00  0.00000000E+00  0.00000000E+00
  0.00000000E+00  0.00000000E+00  0.00000000E+00
  0.00000000E+00  0.00000000E+00  0.00000000E+00
  0.00000000E+00  0.00000000E+00  0.00000000E+00
  0.00000000E+00  0.00000000E+00  0.00000000E+00
  0.00000000E+00  0.00000000E+00  0.00000000E+00
  0.00000000E+00  0.00000000E+00  0.00000000E+00
  0.00000000E+00  0.00000000E+00  0.00000000E+00
  0.00000000E+00  0.00000000E+00  0.00000000E+00
  0.00000000E+00  0.00000000E+00  0.00000000E+00
  0.00000000E+00  0.00000000E+00  0.00000000E+00
