Na O  C  H                              
   1.00000000000000     
    12.8700000000000010    0.0000000000000000    0.0000000000000000
     0.0000000000000000   12.8700000000000010    0.0000000000000000
     0.0000000000000000    0.0000000000000000   49.6476729823764487
  Na              O               C               H             
    90     3     3     4
Selective dynamics
Direct
     0.0000000000000000    0.0000000000000000    0.2126747605009385   F   F   F
     0.1666666666666643    0.1666666666666643    0.2530882380661765   F   F   F
     0.0000000000000000    0.0000000000000000    0.2935485112240102   F   F   F
     0.1665033114646022    0.1666334746934410    0.3338306940998237   F   F   F
     0.9998453300742156    0.9999785429080532    0.3754492645188492   F   F   F
     0.1663812428844693    0.1666135395323138    0.4157814195387957   F   F   F
     0.9998615484142590    0.0000328275969750    0.4567981743465026   F   F   F
     0.1663054536961539    0.1670751805706203    0.4962347422877045   F   F   F
     0.9997823960611285    0.0000153097582043    0.5354088880978267   F   F   F
     0.1670707086717940    0.1674986205830393    0.5748589014628038   F   F   F
     0.0000000000000000    0.3333333333333357    0.2126747605009385   F   F   F
     0.1666666666666643    0.5000000000000000    0.2530882380661765   F   F   F
     0.0000000000000000    0.3333333333333357    0.2935485112240102   F   F   F
     0.1664983908289557    0.4999860593674228    0.3338386818847212   F   F   F
     0.9997276627263503    0.3332928641211552    0.3754513216528679   F   F   F
     0.1664753507213135    0.4999590851026170    0.4157741273239424   F   F   F
     0.9995384227751103    0.3333989230865413    0.4568622131295470   F   F   F
     0.1669937617803612    0.4998946941545839    0.4961639094859009   F   F   F
     0.9980215018290863    0.3361560251424009    0.5359562843895773   F   F   F
     0.1695540459313705    0.5000162568845212    0.5753493709110202   F   F   F
     0.0000000000000000    0.6666666666666643    0.2126747605009385   F   F   F
     0.1666666666666643    0.8333333333333357    0.2530882380661765   F   F   F
     0.0000000000000000    0.6666666666666643    0.2935485112240102   F   F   F
     0.1664973462553831    0.8333325206753344    0.3338316388661724   F   F   F
     0.9997252560415433    0.6666254852799653    0.3754501921646494   F   F   F
     0.1663514708609810    0.8333202138432370    0.4157778572465318   F   F   F
     0.9995328952885956    0.6664847782511742    0.4568675558251556   F   F   F
     0.1660267596960263    0.8328155737350520    0.4959546880919395   T   T   T
     0.9980168063172574    0.6642131580888569    0.5355319281300258   T   T   T
     0.1670939883213307    0.8321396735219347    0.5745133006049961   T   T   T
     0.3338279515075153    0.9999924231763381    0.2138749208105367   T   T   T
     0.4999943683987303    0.1666571861765000    0.2541243940700706   T   T   T
     0.3329915498849080    0.9999820080525040    0.2938346987222404   T   T   T
     0.4999352779151786    0.1666208359211016    0.3341320281578068   T   T   T
     0.3330286572185772    0.9999584001310002    0.3747775256220795   T   T   T
     0.4999483508634465    0.1665877305729842    0.4156727418632459   T   T   T
     0.3330335931193604    0.9999729291458120    0.4561392064201641   T   T   T
     0.5005363098021671    0.1673829714660202    0.4957290744793862   T   T   T
     0.3345497113830691    0.9999590642448840    0.5351076878700006   T   T   T
     0.4999912338120390    0.1693821995406648    0.5750823856047376   T   T   T
     0.3338401485383247    0.3333312948524475    0.2138531447073034   T   T   T
     0.5000012620339823    0.4999774870619277    0.2541266557205679   T   T   T
     0.3329991619735047    0.3333110039621853    0.2938337975938867   T   T   T
     0.4999465626038254    0.4999706532886241    0.3341407170576060   T   T   T
     0.3330205309188220    0.3332018721910240    0.3747176461696237   T   T   T
     0.4999325589311163    0.4999602131340709    0.4156436859407753   T   T   T
     0.3329560245136119    0.3330435397724567    0.4559830347002897   T   T   T
     0.5000857689279326    0.5001117840559636    0.4955299377125443   T   T   T
     0.3340080206005001    0.3337239991029063    0.5350790938795477   T   T   T
     0.4988705120065363    0.5010621727093846    0.5751170851105161   T   T   T
     0.3338368384591852    0.6666462272693261    0.2138526643060294   T   T   T
     0.4999921426423788    0.8333213391567353    0.2541229273355128   T   T   T
     0.3329905089161654    0.6666475139113787    0.2938338772945940   T   T   T
     0.4999363659453427    0.8333116145706893    0.3341314286032425   T   T   T
     0.3330130674342451    0.6667147871442543    0.3747188185988589   T   T   T
     0.4999477349850129    0.8333078410197340    0.4156739753218224   T   T   T
     0.3329108449515980    0.6668638306704240    0.4559570487751080   T   T   T
     0.5005492569846896    0.8326097311896244    0.4957105076286814   T   T   T
     0.3336799588697886    0.6666079296385475    0.5349257211394687   T   T   T
     0.5000257342007026    0.8307556255698137    0.5750578217995667   T   T   T
     0.6666767279871643    0.9999942521997459    0.2140074269846558   T   T   T
     0.8338293302377058    0.1666689481527500    0.2539395454029449   T   T   T
     0.6667292753711168    0.9999827093848223    0.2939648125281781   T   T   T
     0.8337896745974243    0.1665782698688446    0.3341700832023167   T   T   T
     0.6666255030777928    0.9999500271556063    0.3748127919835006   T   T   T
     0.8332484212866602    0.1664685322907145    0.4158583871737484   T   T   T
     0.6664547816048636    0.9999717520716784    0.4560303352246082   T   T   T
     0.8328708919608333    0.1666618155845158    0.4959741320265254   T   T   T
     0.6653744842600285    0.9999818479078043    0.5351703910362772   T   T   T
     0.8324418484669921    0.1664361870758546    0.5749013443274462   T   T   T
     0.6666506910143390    0.3333216579655915    0.2139973036185104   T   T   T
     0.8338262209741945    0.4999858118818393    0.2539405535163609   T   T   T
     0.6667372367685949    0.3332939426138295    0.2939672110170453   T   T   T
     0.8337665023913378    0.4999679761004558    0.3341727182432722   T   T   T
     0.6667384111485656    0.3332188740225423    0.3747942092787470   T   T   T
     0.8332420310411266    0.4999334311322083    0.4158125585415504   T   T   T
     0.6668708061821825    0.3332835262522892    0.4559916363233118   T   T   T
     0.8325390354394905    0.4998075189927117    0.4958435116205486   T   T   T
     0.6674391232506031    0.3349726342883360    0.5352180968904192   T   T   T
     0.8297780527487604    0.5001895119323092    0.5773535802390308   T   T   T
     0.6666503855331731    0.6666504183806823    0.2139988985658086   T   T   T
     0.8338320096741751    0.8333142996204568    0.2539395260542791   T   T   T
     0.6667479227968949    0.6666573059403506    0.2939684733894012   T   T   T
     0.8338045911014816    0.8333673868961834    0.3341693188216213   T   T   T
     0.6667572835690457    0.6666944439634281    0.3747971328482053   T   T   T
     0.8333168298064545    0.8334641366168575    0.4158523086967248   T   T   T
     0.6669871880052399    0.6666664520186516    0.4559788063096571   T   T   T
     0.8329518955136636    0.8336189025550017    0.4959140766053959   T   T   T
     0.6678090324020195    0.6653799248977008    0.5350969010399870   T   T   T
     0.8326432366282075    0.8334957640159644    0.5748731769988025   T   T   T
     0.5576884576936498    0.5877215976936168    0.6701597916737075   T   T   T
     0.5588158092423191    0.4129970769849756    0.6725489504086791   T   T   T
     0.7124297202708616    0.5010371777850666    0.6697745285575377   T   T   T
     0.4508400689140162    0.5582512656794247    0.6749541320087060   T   T   T
     0.4508682553486003    0.4414306529778319    0.6692190752848179   T   T   T
     0.6189088296469567    0.5006141798746655    0.6707307195262056   T   T   T
     0.4010100685884807    0.6029214832644169    0.6612706033887472   T   T   T
     0.4312631643162426    0.5767716177594577    0.6959834605657450   T   T   T
     0.4042815135913549    0.3960105707615199    0.6834704877477181   T   T   T
     0.4273201241828271    0.4229502873384835    0.6484262052546441   T   T   T
 
  0.00000000E+00  0.00000000E+00  0.00000000E+00
  0.00000000E+00  0.00000000E+00  0.00000000E+00
  0.00000000E+00  0.00000000E+00  0.00000000E+00
  0.00000000E+00  0.00000000E+00  0.00000000E+00
  0.00000000E+00  0.00000000E+00  0.00000000E+00
  0.00000000E+00  0.00000000E+00  0.00000000E+00
  0.00000000E+00  0.00000000E+00  0.00000000E+00
  0.00000000E+00  0.00000000E+00  0.00000000E+00
  0.00000000E+00  0.00000000E+00  0.00000000E+00
  0.00000000E+00  0.00000000E+00  0.00000000E+00
  0.00000000E+00  0.00000000E+00  0.00000000E+00
  0.00000000E+00  0.00000000E+00  0.00000000E+00
  0.00000000E+00  0.00000000E+00  0.00000000E+00
  0.00000000E+00  0.00000000E+00  0.00000000E+00
  0.00000000E+00  0.00000000E+00  0.00000000E+00
  0.00000000E+00  0.00000000E+00  0.00000000E+00
  0.00000000E+00  0.00000000E+00  0.00000000E+00
  0.00000000E+00  0.00000000E+00  0.00000000E+00
  0.00000000E+00  0.00000000E+00  0.00000000E+00
  0.00000000E+00  0.00000000E+00  0.00000000E+00
  0.00000000E+00  0.00000000E+00  0.00000000E+00
  0.00000000E+00  0.00000000E+00  0.00000000E+00
  0.00000000E+00  0.00000000E+00  0.00000000E+00
  0.00000000E+00  0.00000000E+00  0.00000000E+00
  0.00000000E+00  0.00000000E+00  0.00000000E+00
  0.00000000E+00  0.00000000E+00  0.00000000E+00
  0.00000000E+00  0.00000000E+00  0.00000000E+00
  0.00000000E+00  0.00000000E+00  0.00000000E+00
  0.00000000E+00  0.00000000E+00  0.00000000E+00
  0.00000000E+00  0.00000000E+00  0.00000000E+00
  0.00000000E+00  0.00000000E+00  0.00000000E+00
  0.00000000E+00  0.00000000E+00  0.00000000E+00
  0.00000000E+00  0.00000000E+00  0.00000000E+00
  0.00000000E+00  0.00000000E+00  0.00000000E+00
  0.00000000E+00  0.00000000E+00  0.00000000E+00
  0.00000000E+00  0.00000000E+00  0.00000000E+00
  0.00000000E+00  0.00000000E+00  0.00000000E+00
  0.00000000E+00  0.00000000E+00  0.00000000E+00
  0.00000000E+00  0.00000000E+00  0.00000000E+00
  0.00000000E+00  0.00000000E+00  0.00000000E+00
  0.00000000E+00  0.00000000E+00  0.00000000E+00
  0.00000000E+00  0.00000000E+00  0.00000000E+00
  0.00000000E+00  0.00000000E+00  0.00000000E+00
  0.00000000E+00  0.00000000E+00  0.00000000E+00
  0.00000000E+00  0.00000000E+00  0.00000000E+00
  0.00000000E+00  0.00000000E+00  0.00000000E+00
  0.00000000E+00  0.00000000E+00  0.00000000E+00
  0.00000000E+00  0.00000000E+00  0.00000000E+00
  0.00000000E+00  0.00000000E+00  0.00000000E+00
  0.00000000E+00  0.00000000E+00  0.00000000E+00
  0.00000000E+00  0.00000000E+00  0.00000000E+00
  0.00000000E+00  0.00000000E+00  0.00000000E+00
  0.00000000E+00  0.00000000E+00  0.00000000E+00
  0.00000000E+00  0.00000000E+00  0.00000000E+00
  0.00000000E+00  0.00000000E+00  0.00000000E+00
  0.00000000E+00  0.00000000E+00  0.00000000E+00
  0.00000000E+00  0.00000000E+00  0.00000000E+00
  0.00000000E+00  0.00000000E+00  0.00000000E+00
  0.00000000E+00  0.00000000E+00  0.00000000E+00
  0.00000000E+00  0.00000000E+00  0.00000000E+00
  0.00000000E+00  0.00000000E+00  0.00000000E+00
  0.00000000E+00  0.00000000E+00  0.00000000E+00
  0.00000000E+00  0.00000000E+00  0.00000000E+00
  0.00000000E+00  0.00000000E+00  0.00000000E+00
  0.00000000E+00  0.00000000E+00  0.00000000E+00
  0.00000000E+00  0.00000000E+00  0.00000000E+00
  0.00000000E+00  0.00000000E+00  0.00000000E+00
  0.00000000E+00  0.00000000E+00  0.00000000E+00
  0.00000000E+00  0.00000000E+00  0.00000000E+00
  0.00000000E+00  0.00000000E+00  0.00000000E+00
  0.00000000E+00  0.00000000E+00  0.00000000E+00
  0.00000000E+00  0.00000000E+00  0.00000000E+00
  0.00000000E+00  0.00000000E+00  0.00000000E+00
  0.00000000E+00  0.00000000E+00  0.00000000E+00
  0.00000000E+00  0.00000000E+00  0.00000000E+00
  0.00000000E+00  0.00000000E+00  0.00000000E+00
  0.00000000E+00  0.00000000E+00  0.00000000E+00
  0.00000000E+00  0.00000000E+00  0.00000000E+00
  0.00000000E+00  0.00000000E+00  0.00000000E+00
  0.00000000E+00  0.00000000E+00  0.00000000E+00
  0.00000000E+00  0.00000000E+00  0.00000000E+00
  0.00000000E+00  0.00000000E+00  0.00000000E+00
  0.00000000E+00  0.00000000E+00  0.00000000E+00
  0.00000000E+00  0.00000000E+00  0.00000000E+00
  0.00000000E+00  0.00000000E+00  0.00000000E+00
  0.00000000E+00  0.00000000E+00  0.00000000E+00
  0.00000000E+00  0.00000000E+00  0.00000000E+00
  0.00000000E+00  0.00000000E+00  0.00000000E+00
  0.00000000E+00  0.00000000E+00  0.00000000E+00
  0.00000000E+00  0.00000000E+00  0.00000000E+00
  0.00000000E+00  0.00000000E+00  0.00000000E+00
  0.00000000E+00  0.00000000E+00  0.00000000E+00
  0.00000000E+00  0.00000000E+00  0.00000000E+00
  0.00000000E+00  0.00000000E+00  0.00000000E+00
  0.00000000E+00  0.00000000E+00  0.00000000E+00
  0.00000000E+00  0.00000000E+00  0.00000000E+00
  0.00000000E+00  0.00000000E+00  0.00000000E+00
  0.00000000E+00  0.00000000E+00  0.00000000E+00
  0.00000000E+00  0.00000000E+00  0.00000000E+00
  0.00000000E+00  0.00000000E+00  0.00000000E+00
